50
1 0 15
3 0 3
4 0 5
4 2 10
4 3 16
5 0 2
5 2 13
5 3 10
5 4 19
6 0 3
6 1 12
6 4 5
6 5 3
7 4 6
7 5 12
7 6 12
8 0 7
8 1 4
8 2 14
8 5 9
8 6 3
8 7 7
9 1 9
9 2 8
9 3 18
9 6 9
9 8 4
10 0 12
10 1 1
10 2 9
10 3 3
10 4 17
10 5 7
10 8 7
11 1 16
11 3 4
11 4 6
11 6 10
11 7 11
11 8 8
11 9 16
11 10 6
12 1 18
12 2 3
12 3 4
12 5 17
12 6 17
12 7 13
12 10 13
12 11 2
13 0 12
13 1 10
13 2 16
13 3 6
13 4 18
13 6 14
13 7 17
13 8 9
13 9 13
13 10 3
13 11 11
13 12 15
14 1 14
14 2 10
14 7 20
14 9 4
14 11 9
14 12 6
14 13 5
15 1 9
15 2 5
15 3 17
15 4 9
15 7 10
15 9 3
15 11 20
15 13 5
16 0 7
16 4 11
16 5 17
16 7 11
16 9 5
16 11 19
16 12 9
17 1 15
17 2 9
17 3 2
17 4 15
17 6 11
17 8 11
17 10 10
17 11 8
17 14 5
17 16 20
18 0 10
18 2 9
18 5 11
18 6 4
18 7 3
18 8 16
18 9 11
18 10 16
18 11 14
18 13 1
18 16 10
19 0 11
19 3 8
19 4 13
19 5 4
19 7 9
19 8 9
19 9 5
19 10 4
19 11 19
19 13 12
19 17 10
19 18 2
20 0 20
20 1 16
20 2 8
20 3 1
20 7 3
20 9 3
20 10 7
20 14 12
20 15 3
20 16 14
20 17 19
21 0 2
21 3 11
21 4 11
21 5 7
21 6 9
21 7 17
21 8 13
21 9 5
21 10 16
21 12 4
21 13 7
21 16 5
21 19 15
22 1 1
22 2 15
22 3 19
22 5 7
22 6 16
22 7 7
22 8 17
22 12 15
22 13 7
22 16 6
22 17 6
22 18 2
22 21 7
23 0 8
23 1 6
23 2 11
23 3 6
23 5 2
23 6 5
23 9 20
23 10 19
23 11 6
23 13 9
23 14 3
23 15 18
23 16 18
23 18 5
23 19 19
23 20 19
23 21 14
23 22 19
24 1 3
24 3 9
24 4 20
24 5 8
24 7 10
24 8 4
24 9 8
24 13 6
24 14 19
24 15 16
24 18 13
24 20 2
24 22 14
24 23 6
25 0 6
25 1 14
25 2 18
25 3 17
25 9 14
25 10 17
25 11 3
25 14 16
25 17 5
25 18 9
25 19 13
25 20 7
25 23 6
26 0 20
26 5 13
26 7 20
26 8 3
26 9 4
26 10 7
26 11 8
26 13 16
26 14 10
26 15 2
26 17 9
26 18 15
26 21 10
26 22 19
26 23 7
27 2 13
27 5 6
27 6 11
27 10 12
27 11 4
27 13 3
27 14 14
27 15 13
27 16 8
27 17 16
27 18 8
27 20 9
27 21 2
27 22 15
27 24 13
27 25 13
27 26 20
28 0 16
28 1 12
28 3 1
28 4 19
28 5 19
28 7 20
28 8 6
28 9 16
28 12 10
28 17 4
28 18 1
28 19 17
28 23 12
28 24 15
28 25 12
28 26 15
28 27 3
29 0 10
29 1 1
29 2 11
29 3 13
29 4 11
29 5 13
29 6 15
29 7 11
29 8 10
29 9 18
29 12 3
29 14 13
29 15 16
29 16 3
29 17 15
29 19 15
29 20 14
29 21 13
29 23 13
29 24 4
29 26 19
29 27 18
30 0 18
30 3 18
30 4 2
30 6 2
30 8 18
30 10 7
30 12 15
30 15 20
30 17 19
30 18 10
30 19 1
30 20 4
30 21 6
30 25 12
30 26 12
30 28 10
30 29 15
31 0 16
31 2 17
31 3 11
31 4 15
31 5 7
31 6 20
31 7 13
31 8 20
31 9 4
31 12 13
31 13 17
31 15 5
31 16 2
31 18 11
31 19 11
31 23 4
31 24 11
31 25 14
31 26 2
31 29 6
31 30 2
32 0 14
32 2 18
32 3 5
32 4 6
32 5 11
32 6 18
32 11 18
32 12 20
32 13 5
32 16 7
32 19 18
32 20 14
32 21 1
32 22 15
32 23 5
32 25 3
32 29 1
33 0 1
33 3 2
33 5 7
33 6 7
33 8 18
33 10 3
33 11 12
33 12 18
33 13 11
33 14 6
33 16 1
33 18 14
33 19 1
33 20 3
33 21 14
33 22 20
33 23 14
33 24 11
33 26 5
33 28 14
33 29 17
33 32 12
34 0 18
34 1 9
34 3 20
34 5 9
34 7 2
34 8 16
34 11 13
34 12 14
34 13 11
34 14 13
34 15 7
34 16 8
34 17 15
34 18 5
34 19 3
34 20 16
34 21 7
34 22 12
34 23 11
34 24 9
34 30 2
34 31 18
34 33 7
35 0 12
35 2 17
35 3 12
35 5 9
35 7 20
35 8 20
35 9 12
35 10 17
35 12 7
35 13 13
35 16 15
35 17 2
35 18 20
35 19 14
35 20 20
35 22 16
35 23 8
35 24 5
35 25 9
35 26 3
35 27 17
35 29 2
35 31 13
35 32 8
35 34 13
36 0 11
36 1 6
36 2 9
36 3 20
36 4 15
36 10 6
36 11 18
36 15 18
36 16 15
36 18 7
36 20 13
36 22 9
36 23 6
36 25 2
36 26 4
36 27 7
36 29 4
36 30 16
36 31 17
36 33 12
36 34 2
36 35 3
37 1 16
37 3 19
37 4 4
37 5 8
37 7 10
37 12 7
37 13 4
37 14 19
37 15 15
37 17 4
37 18 8
37 22 14
37 25 7
37 28 19
37 29 10
37 30 4
37 32 17
37 33 1
37 34 12
38 0 3
38 1 11
38 2 19
38 4 13
38 5 20
38 6 2
38 7 15
38 8 18
38 9 12
38 10 11
38 11 15
38 12 12
38 14 18
38 15 4
38 18 6
38 20 8
38 21 2
38 24 15
38 25 5
38 26 12
38 27 7
38 29 17
38 31 19
38 32 15
39 0 14
39 1 16
39 4 7
39 5 10
39 7 19
39 8 4
39 9 3
39 12 17
39 14 18
39 15 18
39 16 11
39 17 10
39 18 3
39 20 17
39 24 11
39 25 8
39 28 19
39 33 8
39 34 19
39 38 15
40 2 7
40 3 14
40 4 14
40 5 18
40 6 16
40 9 9
40 11 6
40 12 20
40 13 10
40 14 10
40 15 15
40 16 19
40 17 11
40 19 13
40 20 15
40 21 5
40 22 1
40 23 16
40 24 5
40 26 9
40 31 3
40 32 7
40 33 8
40 35 10
40 37 6
40 38 19
40 39 10
41 3 17
41 6 13
41 7 12
41 8 18
41 9 15
41 10 3
41 12 1
41 13 4
41 14 20
41 17 8
41 21 19
41 24 18
41 27 1
41 28 8
41 30 20
41 31 15
41 34 14
41 35 4
41 36 18
41 38 10
41 39 12
41 40 10
42 0 1
42 1 10
42 2 10
42 3 2
42 4 7
42 5 17
42 7 13
42 10 4
42 12 20
42 15 2
42 16 9
42 18 2
42 20 16
42 21 4
42 24 4
42 25 15
42 30 13
42 32 12
42 33 13
42 38 6
42 39 17
42 41 16
43 2 14
43 4 2
43 6 2
43 8 17
43 10 13
43 11 11
43 12 13
43 14 10
43 15 14
43 17 1
43 18 1
43 19 19
43 20 14
43 21 6
43 22 8
43 23 19
43 28 7
43 29 3
43 30 13
43 31 16
43 32 6
43 33 19
43 35 11
43 37 5
43 39 10
43 40 18
43 41 1
43 42 8
44 0 3
44 1 3
44 4 9
44 6 16
44 7 10
44 10 4
44 12 18
44 13 5
44 17 10
44 19 7
44 20 17
44 24 19
44 25 11
44 26 10
44 27 3
44 29 2
44 30 7
44 35 2
44 38 8
44 39 3
44 40 3
44 41 2
44 42 7
44 43 11
45 0 9
45 3 5
45 4 14
45 5 5
45 6 5
45 7 6
45 8 2
45 9 17
45 10 14
45 12 16
45 13 18
45 15 10
45 16 11
45 17 5
45 19 3
45 21 10
45 22 12
45 23 14
45 24 4
45 29 5
45 30 10
45 32 5
45 33 3
45 36 17
45 37 14
45 39 2
45 43 10
45 44 1
46 0 2
46 1 10
46 2 7
46 3 19
46 5 13
46 6 13
46 7 16
46 8 13
46 10 8
46 11 11
46 15 2
46 16 10
46 17 13
46 18 7
46 19 18
46 21 13
46 22 16
46 23 11
46 25 13
46 26 18
46 28 6
46 32 10
46 33 5
46 37 2
46 38 16
46 39 16
46 40 20
46 41 10
46 42 1
46 44 9
46 45 9
47 0 15
47 2 8
47 3 18
47 4 18
47 6 6
47 9 2
47 10 18
47 12 16
47 13 16
47 14 18
47 15 16
47 16 3
47 17 14
47 19 19
47 20 8
47 21 1
47 24 1
47 25 16
47 26 20
47 27 10
47 28 7
47 30 15
47 31 6
47 33 20
47 34 13
47 35 4
47 36 13
47 38 4
47 39 3
47 40 17
47 42 14
47 45 3
47 46 7
48 2 16
48 4 8
48 5 9
48 6 4
48 7 18
48 11 1
48 12 7
48 15 3
48 16 19
48 17 14
48 18 20
48 19 18
48 20 7
48 21 13
48 22 16
48 27 3
48 28 9
48 32 7
48 33 18
48 34 17
48 35 5
48 38 4
48 39 2
48 41 20
48 42 16
48 43 1
48 44 3
48 46 15
49 2 1
49 3 4
49 4 19
49 8 4
49 9 6
49 12 20
49 13 7
49 16 5
49 17 14
49 18 15
49 19 5
49 20 1
49 21 19
49 23 1
49 25 14
49 26 16
49 27 13
49 29 1
49 31 17
49 33 6
49 35 10
49 36 19
49 38 9
49 40 14
49 41 2
49 42 6
49 43 9
49 44 15
49 45 7
49 47 11
